(set-info :source |
 Generated by Alive 0.1
 More info in N. P. Lopes, D. Menendez, S. Nagarakatte, J. Regehr.
 Provably Correct Peephole Optimizations with Alive. In PLDI'15.
|)

(set-info :status unknown)
(declare-fun C () (_ BitVec 58))
(declare-fun C2 () (_ BitVec 58))
(declare-fun %X () (_ BitVec 58))
(assert
 (let (($x206236 (and (distinct (bvlshr (bvxor %X C2) C) (bvxor (bvlshr %X C) (bvlshr C2 C))) true)))
 (let (($x42813 (bvult C (_ bv58 58))))
 (and $x42813 $x206236))))
(check-sat)
